demo/files/optimization/c3t.lp
Minimize
 obj:  x1 + x2 + x3
Subject to
 C1: x1 + x2 + x3 <= 2
Bounds
 0 <= x1 <= 1
 0 <= x2 <= 1
 0 <= x3 <= 1
End
