demo/files/optimization/c3t.mps
Name          0/1-cube
ROWS
 N  C0000000
 G  R0000000
COLUMNS
    x1        C0000000  1                        R0000000  -1
    x2        C0000000  1                        R0000000  -1
    x3        C0000000  1                        R0000000  -1
RHS
    B         R0000000  -2                       
BOUNDS
 LO BND       x1        0
 UP BND       x1        1
 LO BND       x2        0
 UP BND       x2        1
 LO BND       x3        0
 UP BND       x3        1
ENDATA

